T = 150;
V = 10;
Q = 15;
L = 5;
C = 3;
P = 10;
time = [|  0, 32, 17,  0, 33, 17, 32, 17,  0, 26, 17, 26, 26, 26,  0, 26, 17, 26, 26, 33, 20, 20, 20, 20, 20, 20, 20, 20, 20, 20, 20, 20, 20, 20, 20, 20, 20, 20, 20, 20,
        | 32,  0, 20, 32, 18, 20,  0, 20, 32, 18, 20, 18, 18, 18, 32, 18, 20, 18, 18, 18, 14, 14, 14, 14, 14, 14, 14, 14, 14, 14, 14, 14, 14, 14, 14, 14, 14, 14, 14, 14,
        | 17, 20,  0, 17, 30,  0, 20,  0, 17,  9,  0,  9,  9,  9, 17,  9,  0,  9,  9, 30,  8,  8,  8,  8,  8,  8,  8,  8,  8,  8,  8,  8,  8,  8,  8,  8,  8,  8,  8,  8,
        |  0, 32, 17,  0, 33, 17, 32, 17,  0, 26, 17, 26, 26, 26,  0, 26, 17, 26, 26, 33, 20, 20, 20, 20, 20, 20, 20, 20, 20, 20, 20, 20, 20, 20, 20, 20, 20, 20, 20, 20,
        | 33, 18, 30, 33,  0, 30, 18, 30, 33, 32, 30, 32, 32, 32, 33, 32, 30, 32, 32,  0, 23, 23, 23, 23, 23, 23, 23, 23, 23, 23, 23, 23, 23, 23, 23, 23, 23, 23, 23, 23,
        | 17, 20,  0, 17, 30,  0, 20,  0, 17,  9,  0,  9,  9,  9, 17,  9,  0,  9,  9, 30,  8,  8,  8,  8,  8,  8,  8,  8,  8,  8,  8,  8,  8,  8,  8,  8,  8,  8,  8,  8,
        | 32,  0, 20, 32, 18, 20,  0, 20, 32, 18, 20, 18, 18, 18, 32, 18, 20, 18, 18, 18, 14, 14, 14, 14, 14, 14, 14, 14, 14, 14, 14, 14, 14, 14, 14, 14, 14, 14, 14, 14,
        | 17, 20,  0, 17, 30,  0, 20,  0, 17,  9,  0,  9,  9,  9, 17,  9,  0,  9,  9, 30,  8,  8,  8,  8,  8,  8,  8,  8,  8,  8,  8,  8,  8,  8,  8,  8,  8,  8,  8,  8,
        |  0, 32, 17,  0, 33, 17, 32, 17,  0, 26, 17, 26, 26, 26,  0, 26, 17, 26, 26, 33, 20, 20, 20, 20, 20, 20, 20, 20, 20, 20, 20, 20, 20, 20, 20, 20, 20, 20, 20, 20,
        | 26, 18,  9, 26, 32,  9, 18,  9, 26,  0,  9,  0,  0,  0, 26,  0,  9,  0,  0, 32, 11, 11, 11, 11, 11, 11, 11, 11, 11, 11, 11, 11, 11, 11, 11, 11, 11, 11, 11, 11,
        | 17, 20,  0, 17, 30,  0, 20,  0, 17,  9,  0,  9,  9,  9, 17,  9,  0,  9,  9, 30,  8,  8,  8,  8,  8,  8,  8,  8,  8,  8,  8,  8,  8,  8,  8,  8,  8,  8,  8,  8,
        | 26, 18,  9, 26, 32,  9, 18,  9, 26,  0,  9,  0,  0,  0, 26,  0,  9,  0,  0, 32, 11, 11, 11, 11, 11, 11, 11, 11, 11, 11, 11, 11, 11, 11, 11, 11, 11, 11, 11, 11,
        | 26, 18,  9, 26, 32,  9, 18,  9, 26,  0,  9,  0,  0,  0, 26,  0,  9,  0,  0, 32, 11, 11, 11, 11, 11, 11, 11, 11, 11, 11, 11, 11, 11, 11, 11, 11, 11, 11, 11, 11,
        | 26, 18,  9, 26, 32,  9, 18,  9, 26,  0,  9,  0,  0,  0, 26,  0,  9,  0,  0, 32, 11, 11, 11, 11, 11, 11, 11, 11, 11, 11, 11, 11, 11, 11, 11, 11, 11, 11, 11, 11,
        |  0, 32, 17,  0, 33, 17, 32, 17,  0, 26, 17, 26, 26, 26,  0, 26, 17, 26, 26, 33, 20, 20, 20, 20, 20, 20, 20, 20, 20, 20, 20, 20, 20, 20, 20, 20, 20, 20, 20, 20,
        | 26, 18,  9, 26, 32,  9, 18,  9, 26,  0,  9,  0,  0,  0, 26,  0,  9,  0,  0, 32, 11, 11, 11, 11, 11, 11, 11, 11, 11, 11, 11, 11, 11, 11, 11, 11, 11, 11, 11, 11,
        | 17, 20,  0, 17, 30,  0, 20,  0, 17,  9,  0,  9,  9,  9, 17,  9,  0,  9,  9, 30,  8,  8,  8,  8,  8,  8,  8,  8,  8,  8,  8,  8,  8,  8,  8,  8,  8,  8,  8,  8,
        | 26, 18,  9, 26, 32,  9, 18,  9, 26,  0,  9,  0,  0,  0, 26,  0,  9,  0,  0, 32, 11, 11, 11, 11, 11, 11, 11, 11, 11, 11, 11, 11, 11, 11, 11, 11, 11, 11, 11, 11,
        | 26, 18,  9, 26, 32,  9, 18,  9, 26,  0,  9,  0,  0,  0, 26,  0,  9,  0,  0, 32, 11, 11, 11, 11, 11, 11, 11, 11, 11, 11, 11, 11, 11, 11, 11, 11, 11, 11, 11, 11,
        | 33, 18, 30, 33,  0, 30, 18, 30, 33, 32, 30, 32, 32, 32, 33, 32, 30, 32, 32,  0, 23, 23, 23, 23, 23, 23, 23, 23, 23, 23, 23, 23, 23, 23, 23, 23, 23, 23, 23, 23,
        | 20, 14,  8, 20, 23,  8, 14,  8, 20, 11,  8, 11, 11, 11, 20, 11,  8, 11, 11, 23,  0,  0,  0,  0,  0,  0,  0,  0,  0,  0,  0,  0,  0,  0,  0,  0,  0,  0,  0,  0,
        | 20, 14,  8, 20, 23,  8, 14,  8, 20, 11,  8, 11, 11, 11, 20, 11,  8, 11, 11, 23,  0,  0,  0,  0,  0,  0,  0,  0,  0,  0,  0,  0,  0,  0,  0,  0,  0,  0,  0,  0,
        | 20, 14,  8, 20, 23,  8, 14,  8, 20, 11,  8, 11, 11, 11, 20, 11,  8, 11, 11, 23,  0,  0,  0,  0,  0,  0,  0,  0,  0,  0,  0,  0,  0,  0,  0,  0,  0,  0,  0,  0,
        | 20, 14,  8, 20, 23,  8, 14,  8, 20, 11,  8, 11, 11, 11, 20, 11,  8, 11, 11, 23,  0,  0,  0,  0,  0,  0,  0,  0,  0,  0,  0,  0,  0,  0,  0,  0,  0,  0,  0,  0,
        | 20, 14,  8, 20, 23,  8, 14,  8, 20, 11,  8, 11, 11, 11, 20, 11,  8, 11, 11, 23,  0,  0,  0,  0,  0,  0,  0,  0,  0,  0,  0,  0,  0,  0,  0,  0,  0,  0,  0,  0,
        | 20, 14,  8, 20, 23,  8, 14,  8, 20, 11,  8, 11, 11, 11, 20, 11,  8, 11, 11, 23,  0,  0,  0,  0,  0,  0,  0,  0,  0,  0,  0,  0,  0,  0,  0,  0,  0,  0,  0,  0,
        | 20, 14,  8, 20, 23,  8, 14,  8, 20, 11,  8, 11, 11, 11, 20, 11,  8, 11, 11, 23,  0,  0,  0,  0,  0,  0,  0,  0,  0,  0,  0,  0,  0,  0,  0,  0,  0,  0,  0,  0,
        | 20, 14,  8, 20, 23,  8, 14,  8, 20, 11,  8, 11, 11, 11, 20, 11,  8, 11, 11, 23,  0,  0,  0,  0,  0,  0,  0,  0,  0,  0,  0,  0,  0,  0,  0,  0,  0,  0,  0,  0,
        | 20, 14,  8, 20, 23,  8, 14,  8, 20, 11,  8, 11, 11, 11, 20, 11,  8, 11, 11, 23,  0,  0,  0,  0,  0,  0,  0,  0,  0,  0,  0,  0,  0,  0,  0,  0,  0,  0,  0,  0,
        | 20, 14,  8, 20, 23,  8, 14,  8, 20, 11,  8, 11, 11, 11, 20, 11,  8, 11, 11, 23,  0,  0,  0,  0,  0,  0,  0,  0,  0,  0,  0,  0,  0,  0,  0,  0,  0,  0,  0,  0,
        | 20, 14,  8, 20, 23,  8, 14,  8, 20, 11,  8, 11, 11, 11, 20, 11,  8, 11, 11, 23,  0,  0,  0,  0,  0,  0,  0,  0,  0,  0,  0,  0,  0,  0,  0,  0,  0,  0,  0,  0,
        | 20, 14,  8, 20, 23,  8, 14,  8, 20, 11,  8, 11, 11, 11, 20, 11,  8, 11, 11, 23,  0,  0,  0,  0,  0,  0,  0,  0,  0,  0,  0,  0,  0,  0,  0,  0,  0,  0,  0,  0,
        | 20, 14,  8, 20, 23,  8, 14,  8, 20, 11,  8, 11, 11, 11, 20, 11,  8, 11, 11, 23,  0,  0,  0,  0,  0,  0,  0,  0,  0,  0,  0,  0,  0,  0,  0,  0,  0,  0,  0,  0,
        | 20, 14,  8, 20, 23,  8, 14,  8, 20, 11,  8, 11, 11, 11, 20, 11,  8, 11, 11, 23,  0,  0,  0,  0,  0,  0,  0,  0,  0,  0,  0,  0,  0,  0,  0,  0,  0,  0,  0,  0,
        | 20, 14,  8, 20, 23,  8, 14,  8, 20, 11,  8, 11, 11, 11, 20, 11,  8, 11, 11, 23,  0,  0,  0,  0,  0,  0,  0,  0,  0,  0,  0,  0,  0,  0,  0,  0,  0,  0,  0,  0,
        | 20, 14,  8, 20, 23,  8, 14,  8, 20, 11,  8, 11, 11, 11, 20, 11,  8, 11, 11, 23,  0,  0,  0,  0,  0,  0,  0,  0,  0,  0,  0,  0,  0,  0,  0,  0,  0,  0,  0,  0,
        | 20, 14,  8, 20, 23,  8, 14,  8, 20, 11,  8, 11, 11, 11, 20, 11,  8, 11, 11, 23,  0,  0,  0,  0,  0,  0,  0,  0,  0,  0,  0,  0,  0,  0,  0,  0,  0,  0,  0,  0,
        | 20, 14,  8, 20, 23,  8, 14,  8, 20, 11,  8, 11, 11, 11, 20, 11,  8, 11, 11, 23,  0,  0,  0,  0,  0,  0,  0,  0,  0,  0,  0,  0,  0,  0,  0,  0,  0,  0,  0,  0,
        | 20, 14,  8, 20, 23,  8, 14,  8, 20, 11,  8, 11, 11, 11, 20, 11,  8, 11, 11, 23,  0,  0,  0,  0,  0,  0,  0,  0,  0,  0,  0,  0,  0,  0,  0,  0,  0,  0,  0,  0,
        | 20, 14,  8, 20, 23,  8, 14,  8, 20, 11,  8, 11, 11, 11, 20, 11,  8, 11, 11, 23,  0,  0,  0,  0,  0,  0,  0,  0,  0,  0,  0,  0,  0,  0,  0,  0,  0,  0,  0,  0|];
l =     [  2,  4,  5,  2,  1,  5,  4,  5,  2,  3,  5,  3,  3,  3,  2,  3,  5,  3,  3,  1];
a =     [ 43, 33, 19, 20, 23, 27, 29, 58, 20, 17, 74, 63, 39, 56, 70, 51, 63, 80, 63, 65];
b =     [ 69, 69, 35, 58, 59, 59, 68, 80, 38, 32,121,118,100, 96,115, 98,118,120,114,111];
s =     [ 14, 12, 11, 10, 14, 15, 14, 13, 17, 16, 14, 12, 11, 10, 14, 15, 14, 13, 17, 16];
q =     [  4,  3,  1,  1,  1,  2,  1,  4,  3,  3, -4, -3, -1, -1, -1, -2, -1, -4, -3, -3];
